# Solution for model mitosis_srl_ilp
# Objective value = 2.9543876854479524e+01
Z_571_1_0 1
Z_571_1_1 0
Z_571_1_2 0
Z_571_1_3 0
Z_571_1_4 0
Z_571_2_0 0
Z_571_2_1 0
Z_571_2_2 0
Z_571_2_3 1
Z_571_2_4 0
Z_571_0_0 0
Z_571_0_1 0
Z_571_0_2 1
Z_571_0_3 0
Z_571_0_4 0
Z_669_7_0 0
Z_669_7_1 0
Z_669_7_2 0
Z_669_7_3 0
Z_669_7_4 1
Z_669_6_0 0
Z_669_6_1 0
Z_669_6_2 0
Z_669_6_3 1
Z_669_6_4 0
Z_669_1_0 0
Z_669_1_1 0
Z_669_1_2 0
Z_669_1_3 0
Z_669_1_4 1
Z_669_0_0 0
Z_669_0_1 0
Z_669_0_2 0
Z_669_0_3 0
Z_669_0_4 1
Z_669_4_0 0
Z_669_4_1 0
Z_669_4_2 0
Z_669_4_3 0
Z_669_4_4 1
Z_669_2_0 0
Z_669_2_1 0
Z_669_2_2 0
Z_669_2_3 0
Z_669_2_4 1
Z_669_8_0 0
Z_669_8_1 0
Z_669_8_2 0
Z_669_8_3 0
Z_669_8_4 1
Z_669_9_0 0
Z_669_9_1 0
Z_669_9_2 0
Z_669_9_3 0
Z_669_9_4 1
Z_669_5_0 0
Z_669_5_1 0
Z_669_5_2 0
Z_669_5_3 0
Z_669_5_4 1
Z_669_3_0 0
Z_669_3_1 0
Z_669_3_2 1
Z_669_3_3 0
Z_669_3_4 0
Z_25_1_0 1
Z_25_1_1 0
Z_25_1_2 0
Z_25_1_3 0
Z_25_1_4 0
Z_25_0_0 0
Z_25_0_1 0
Z_25_0_2 1
Z_25_0_3 0
Z_25_0_4 0
Z_25_2_0 0
Z_25_2_1 0
Z_25_2_2 0
Z_25_2_3 1
Z_25_2_4 0
Z_413_1_0 1
Z_413_1_1 0
Z_413_1_2 0
Z_413_1_3 0
Z_413_1_4 0
Z_413_2_0 0
Z_413_2_1 0
Z_413_2_2 1
Z_413_2_3 0
Z_413_2_4 0
Z_413_0_0 0
Z_413_0_1 0
Z_413_0_2 0
Z_413_0_3 1
Z_413_0_4 0
Z_428_3_0 1
Z_428_3_1 0
Z_428_3_2 0
Z_428_3_3 0
Z_428_3_4 0
Z_428_0_0 0
Z_428_0_1 0
Z_428_0_2 0
Z_428_0_3 0
Z_428_0_4 1
Z_428_2_0 0
Z_428_2_1 0
Z_428_2_2 0
Z_428_2_3 0
Z_428_2_4 1
Z_428_6_0 0
Z_428_6_1 1
Z_428_6_2 0
Z_428_6_3 0
Z_428_6_4 0
Z_428_1_0 0
Z_428_1_1 0
Z_428_1_2 1
Z_428_1_3 0
Z_428_1_4 0
Z_428_7_0 0
Z_428_7_1 0
Z_428_7_2 0
Z_428_7_3 0
Z_428_7_4 1
Z_428_4_0 0
Z_428_4_1 0
Z_428_4_2 0
Z_428_4_3 1
Z_428_4_4 0
Z_428_5_0 0
Z_428_5_1 0
Z_428_5_2 0
Z_428_5_3 0
Z_428_5_4 1
Z_712_0_0 0
Z_712_0_1 0
Z_712_0_2 1
Z_712_0_3 0
Z_712_0_4 0
Z_399_0_0 0
Z_399_0_1 0
Z_399_0_2 0
Z_399_0_3 1
Z_399_0_4 0
Z_46_1_0 0
Z_46_1_1 0
Z_46_1_2 1
Z_46_1_3 0
Z_46_1_4 0
Z_514_0_0 1
Z_514_0_1 0
Z_514_0_2 0
Z_514_0_3 0
Z_514_0_4 0
Z_514_1_0 0
Z_514_1_1 0
Z_514_1_2 1
Z_514_1_3 0
Z_514_1_4 0
Z_288_0_0 0
Z_288_0_1 0
Z_288_0_2 0
Z_288_0_3 1
Z_288_0_4 0
Z_462_0_0 0
Z_462_0_1 0
Z_462_0_2 0
Z_462_0_3 1
Z_462_0_4 0
Z_122_0_0 0
Z_122_0_1 0
Z_122_0_2 1
Z_122_0_3 0
Z_122_0_4 0
Z_368_0_0 0
Z_368_0_1 0
Z_368_0_2 0
Z_368_0_3 0
Z_368_0_4 1
Z_77_0_0 0
Z_77_0_1 0
Z_77_0_2 0
Z_77_0_3 1
Z_77_0_4 0
Z_169_0_0 0
Z_169_0_1 0
Z_169_0_2 0
Z_169_0_3 1
Z_169_0_4 0
Z_638_2_0 0
Z_638_2_1 0
Z_638_2_2 0
Z_638_2_3 0
Z_638_2_4 1
Z_638_0_0 0
Z_638_0_1 0
Z_638_0_2 1
Z_638_0_3 0
Z_638_0_4 0
Z_638_1_0 1
Z_638_1_1 0
Z_638_1_2 0
Z_638_1_3 0
Z_638_1_4 0
Z_682_1_0 0
Z_682_1_1 0
Z_682_1_2 1
Z_682_1_3 0
Z_682_1_4 0
Z_682_0_0 1
Z_682_0_1 0
Z_682_0_2 0
Z_682_0_3 0
Z_682_0_4 0
Z_406_2_0 0
Z_406_2_1 0
Z_406_2_2 0
Z_406_2_3 0
Z_406_2_4 1
Z_406_1_0 0
Z_406_1_1 0
Z_406_1_2 0
Z_406_1_3 0
Z_406_1_4 1
Z_406_0_0 0
Z_406_0_1 0
Z_406_0_2 0
Z_406_0_3 0
Z_406_0_4 1
Z_406_3_0 0
Z_406_3_1 0
Z_406_3_2 0
Z_406_3_3 1
Z_406_3_4 0
Z_406_4_0 0
Z_406_4_1 0
Z_406_4_2 0
Z_406_4_3 0
Z_406_4_4 1
